c Created with the Wolfram Language : www.wolfram.com
c 
p edge 100 242
e 2 5
e 5 7
e 6 7
e 5 9
e 7 13
e 5 15
e 10 15
e 18 19
e 10 20
e 18 21
e 1 22
e 19 22
e 13 23
e 16 24
e 8 26
e 5 27
e 20 27
e 1 29
e 11 30
e 3 32
e 12 32
e 31 32
e 11 33
e 15 34
e 5 35
e 19 35
e 15 37
e 36 37
e 23 38
e 31 38
e 22 39
e 24 39
e 27 39
e 2 42
e 15 42
e 5 43
e 4 44
e 6 44
e 10 44
e 41 44
e 2 45
e 4 45
e 5 45
e 10 45
e 40 45
e 5 46
e 9 47
e 12 47
e 31 47
e 2 48
e 20 48
e 24 49
e 33 49
e 39 49
e 42 49
e 47 49
e 1 50
e 12 50
e 26 50
e 44 50
e 2 51
e 9 51
e 41 51
e 22 52
e 33 52
e 37 52
e 7 53
e 13 53
e 38 53
e 33 54
e 3 56
e 7 56
e 21 56
e 29 56
e 16 57
e 40 57
e 50 58
e 21 60
e 24 60
e 35 60
e 36 60
e 40 60
e 51 60
e 20 61
e 27 61
e 30 61
e 31 61
e 5 62
e 33 62
e 57 62
e 4 63
e 31 63
e 53 63
e 19 64
e 40 64
e 59 64
e 9 65
e 19 66
e 32 66
e 54 66
e 12 67
e 34 67
e 45 67
e 12 68
e 22 68
e 32 68
e 23 69
e 26 69
e 39 69
e 42 69
e 19 70
e 33 70
e 36 70
e 12 71
e 29 71
e 33 71
e 41 71
e 28 72
e 44 72
e 25 73
e 47 73
e 2 74
e 7 74
e 38 74
e 27 75
e 43 75
e 45 75
e 59 75
e 63 75
e 4 76
e 19 76
e 24 76
e 43 76
e 62 76
e 15 77
e 48 78
e 3 79
e 15 79
e 43 79
e 46 79
e 47 79
e 57 79
e 71 79
e 72 79
e 76 79
e 58 80
e 21 81
e 27 81
e 12 82
e 33 82
e 38 82
e 74 82
e 8 83
e 19 83
e 35 83
e 63 83
e 37 84
e 38 84
e 42 84
e 64 84
e 66 84
e 1 85
e 11 85
e 13 85
e 22 85
e 34 85
e 73 85
e 77 85
e 6 86
e 14 86
e 19 86
e 33 86
e 45 86
e 50 86
e 54 86
e 13 87
e 14 87
e 23 87
e 47 87
e 55 87
e 77 87
e 13 88
e 63 88
e 72 88
e 83 88
e 40 89
e 6 90
e 17 90
e 50 90
e 65 90
e 1 91
e 4 91
e 31 91
e 32 91
e 57 91
e 24 92
e 30 92
e 49 92
e 74 92
e 56 93
e 71 93
e 79 93
e 82 93
e 83 93
e 1 94
e 63 94
e 80 94
e 2 95
e 29 95
e 30 95
e 38 95
e 41 95
e 44 95
e 46 95
e 84 95
e 4 96
e 8 96
e 58 96
e 62 96
e 63 96
e 72 96
e 89 96
e 60 97
e 66 97
e 71 97
e 82 97
e 89 97
e 6 98
e 41 98
e 43 98
e 56 98
e 87 98
e 91 98
e 58 99
e 60 99
e 20 100
e 22 100
e 53 100
e 57 100
e 75 100
e 76 100
e 95 100
